NAME : in_house_9_17
TYPE : TSP
DIMENSION : 9
EDGE_WEIGHT_TYPE : EXPLICIT
EDGE_WEIGHT_FORMAT : UPPER_ROW
COMMENT : INVERSION_SHIFT=1
EDGE_WEIGHT_SECTION
67
29
21
59
62
69
47
25
78
37
44
74
9
26
35
78
37
60
28
49
9
15
75
59
42
14
62
16
4
36
16
25
60
63
26
1
